(declare-fun a () Bool)
(declare-fun b () Bool)
(declare-fun c () Bool)
(declare-fun d () Bool)
(declare-fun aa () Bool)
(declare-fun e () Bool)
(declare-fun f () Bool)
(declare-fun ab () Bool)
(declare-fun g () Bool)
(declare-fun h () Bool)
(declare-fun i () Bool)
(declare-fun j () Bool)
(declare-fun k () Bool)
(declare-fun l () Bool)
(declare-fun m () Bool)
(declare-fun n () Bool)
(declare-fun o () Bool)
(declare-fun p () Bool)
(declare-fun q () Bool)
(declare-fun r () Bool)
(declare-fun s () Bool)
(declare-fun t () Bool)
(declare-fun u () Bool)
(declare-fun v () Bool)
(declare-fun w () Bool)
(declare-fun x () Bool)
(declare-fun y () Bool)
(declare-fun z () Bool)
(declare-fun ac () Bool)
(declare-fun ad () Bool)
(declare-fun ae () Bool)
(assert (distinct false true ae ad ac z y x w v u t s r q p o n m l k j i h g ab f e aa d c b a))
(check-sat)
